
  32    4
  10   10   10   10

   0   0   0   0   0   3 2 5 6 
  10  10  10  10  10   1 3 
   5  10  10  10  10   2 12 4 
   3  10  10  10  10   3 31 13 7 
  10  10  10  10  10   3 18 17 8 
   8  10  10  10  10   5 31 24 18 17 10 
   1  10  10  10  10   3 24 17 9 
   5  10  10  10  10   4 31 24 13 10 
   8  10  10  10  10   2 18 10 
   8  10  10  10  10   2 23 11 
   7  10  10  10  10   3 30 28 14 
   9  10  10  10  10   3 29 23 15 
   5  10  10  10  10   2 29 14 
   9  10  10  10  10   1 15 
   6  10  10  10  10   1 16 
   7  10  10  10  10   2 27 19 
   7  10  10  10  10   2 27 19 
   8  10  10  10  10   3 28 26 21 
   8  10  10  10  10   1 20 
   6  10  10  10  10   2 26 21 
   1  10  10  10  10   1 22 
   6  10  10  10  10   1 25 
   9  10  10  10  10   1 26 
   1  10  10  10  10   1 29 
   7  10  10  10  10   1 32
   6  10  10  10  10   1 32
   8  10  10  10  10   1 32
   7  10  10  10  10   1 32
   1  10  10  10  10   1 32
   4  10  10  10  10   1 32
   4  10  10  10  10   1 32
   0   0   0   0   0   0 
